c CNF file corresponding to a (partial) station packing problem.
p cnf 5639 171
1 2 3 4 5 6 7 8 9 10 11 12 13 14 0
-1 -2 0
-1 -3 0
-1 -4 0
-1 -5 0
-1 -6 0
-1 -7 0
-1 -8 0
-1 -9 0
-1 -10 0
-1 -11 0
-1 -12 0
-1 -13 0
-1 -14 0
-2 -3 0
-2 -4 0
-2 -5 0
-2 -6 0
-2 -7 0
-2 -8 0
-2 -9 0
-2 -10 0
-2 -11 0
-2 -12 0
-2 -13 0
-2 -14 0
-3 -4 0
-3 -5 0
-3 -6 0
-3 -7 0
-3 -8 0
-3 -9 0
-3 -10 0
-3 -11 0
-3 -12 0
-3 -13 0
-3 -14 0
-4 -5 0
-4 -6 0
-4 -7 0
-4 -8 0
-4 -9 0
-4 -10 0
-4 -11 0
-4 -12 0
-4 -13 0
-4 -14 0
-5 -6 0
-5 -7 0
-5 -8 0
-5 -9 0
-5 -10 0
-5 -11 0
-5 -12 0
-5 -13 0
-5 -14 0
-6 -7 0
-6 -8 0
-6 -9 0
-6 -10 0
-6 -11 0
-6 -12 0
-6 -13 0
-6 -14 0
-7 -8 0
-7 -9 0
-7 -10 0
-7 -11 0
-7 -12 0
-7 -13 0
-7 -14 0
-8 -9 0
-8 -10 0
-8 -11 0
-8 -12 0
-8 -13 0
-8 -14 0
-9 -10 0
-9 -11 0
-9 -12 0
-9 -13 0
-9 -14 0
-10 -11 0
-10 -12 0
-10 -13 0
-10 -14 0
-11 -12 0
-11 -13 0
-11 -14 0
-12 -13 0
-12 -14 0
-13 -14 0
5627 5628 5629 5630 5631 5632 5633 5634 5635 5636 5637 5638 5639 0
-5627 -5628 0
-5627 -5629 0
-5627 -5630 0
-5627 -5631 0
-5627 -5632 0
-5627 -5633 0
-5627 -5634 0
-5627 -5635 0
-5627 -5636 0
-5627 -5637 0
-5627 -5638 0
-5627 -5639 0
-5628 -5629 0
-5628 -5630 0
-5628 -5631 0
-5628 -5632 0
-5628 -5633 0
-5628 -5634 0
-5628 -5635 0
-5628 -5636 0
-5628 -5637 0
-5628 -5638 0
-5628 -5639 0
-5629 -5630 0
-5629 -5631 0
-5629 -5632 0
-5629 -5633 0
-5629 -5634 0
-5629 -5635 0
-5629 -5636 0
-5629 -5637 0
-5629 -5638 0
-5629 -5639 0
-5630 -5631 0
-5630 -5632 0
-5630 -5633 0
-5630 -5634 0
-5630 -5635 0
-5630 -5636 0
-5630 -5637 0
-5630 -5638 0
-5630 -5639 0
-5631 -5632 0
-5631 -5633 0
-5631 -5634 0
-5631 -5635 0
-5631 -5636 0
-5631 -5637 0
-5631 -5638 0
-5631 -5639 0
-5632 -5633 0
-5632 -5634 0
-5632 -5635 0
-5632 -5636 0
-5632 -5637 0
-5632 -5638 0
-5632 -5639 0
-5633 -5634 0
-5633 -5635 0
-5633 -5636 0
-5633 -5637 0
-5633 -5638 0
-5633 -5639 0
-5634 -5635 0
-5634 -5636 0
-5634 -5637 0
-5634 -5638 0
-5634 -5639 0
-5635 -5636 0
-5635 -5637 0
-5635 -5638 0
-5635 -5639 0
-5636 -5637 0
-5636 -5638 0
-5636 -5639 0
-5637 -5638 0
-5637 -5639 0
-5638 -5639 0
